p tw 37 41
1 2
2 13
3 4
3 6
4 5
5 6
5 10
6 7
7 8
8 9
9 30
10 11
11 12
12 14
13 24
14 15
15 16
16 17
17 18
18 19
19 20
19 23
20 21
21 22
22 28
23 25
24 32
25 26
26 27
27 28
28 29
29 30
30 31
32 33
33 34
34 35
34 6
35 36
36 37
36 6
37 3
